c preprocessed version of BN_85, 29 vertices, 287 edges
p td 29 287
1 0
2 0
5 0
11 0
4 0
13 0
2 1
1 8
6 1
5 1
4 1
15 1
16 1
17 1
2 3
6 2
5 2
4 2
12 2
7 2
16 2
4 3
12 3
7 3
4 5
4 9
4 8
4 10
4 6
11 4
4 7
4 12
4 13
4 14
16 4
17 4
5 6
5 9
5 8
10 5
11 5
12 5
13 5
14 5
7 5
16 5
17 5
7 6
16 6
7 8
7 10
11 7
12 7
13 7
14 7
16 7
17 7
9 8
12 8
17 8
10 9
11 9
12 9
13 9
14 9
15 9
16 9
17 9
11 10
12 10
13 10
14 10
15 10
16 10
17 10
11 12
11 13
11 14
12 13
12 14
15 12
16 12
17 12
13 14
15 13
16 13
17 13
15 14
16 14
17 14
15 16
15 17
16 17
18 15
18 16
18 3
18 6
18 28
18 19
18 20
18 25
18 9
18 10
18 5
18 22
18 17
18 21
18 23
18 24
18 26
18 27
18 14
19 20
19 9
19 25
19 10
19 12
19 13
19 14
19 15
19 16
19 28
19 17
19 22
19 23
19 24
19 26
19 27
19 21
20 28
20 0
20 9
20 25
20 10
20 5
20 11
20 4
20 12
20 13
20 14
20 7
20 15
20 16
20 17
20 22
20 23
20 24
20 26
20 27
20 21
21 28
21 15
21 16
21 17
21 22
21 23
21 24
21 26
21 27
21 1
21 2
21 3
21 0
21 5
21 25
21 9
21 8
21 10
21 6
21 11
21 7
21 4
21 12
21 13
21 14
22 28
22 15
22 16
22 17
22 3
22 6
22 9
22 25
22 10
22 5
22 4
22 23
22 24
22 26
22 27
22 14
22 7
23 28
23 15
23 16
23 17
23 11
23 4
23 10
23 5
23 7
23 3
23 2
23 8
23 1
23 6
23 26
23 27
23 24
23 25
23 9
23 12
23 13
23 14
24 28
24 15
24 16
24 17
24 11
24 4
24 10
24 5
24 7
24 3
24 2
24 8
24 26
24 27
24 25
24 9
24 12
24 13
24 14
25 28
25 2
25 4
25 9
25 10
25 12
25 13
25 14
25 15
25 16
25 17
25 26
25 27
26 28
26 15
26 16
26 17
26 11
26 4
26 7
26 10
26 5
26 3
26 6
26 27
26 9
26 12
26 13
26 14
27 28
27 15
27 16
27 17
27 11
27 4
27 12
27 13
27 7
27 10
27 5
27 3
27 2
27 6
27 9
27 14
28 4
28 5
28 7
28 10
28 12
28 14
28 15
28 16
28 17
